clingo version 5.2.2
Reading from ..._y6_n66_r1_s16_ps1_pr32_u96_o2_N003.lp ...
Solving...
Solving...
Solving...
Solving...
Solving...
Solving...
Solving...
Solving...
Solving...
Solving...
Solving...
Solving...
Solving...
Solving...
Solving...
Solving...
Solving...
Solving...
Solving...
Solving...
Solving...
Solving...
Answer: 1
init(object(order,1),value(pickingStation,1)) init(object(order,2),value(pickingStation,1)) init(object(highway,1),value(at,(1,1))) init(object(highway,2),value(at,(2,1))) init(object(highway,3),value(at,(3,1))) init(object(highway,4),value(at,(4,1))) init(object(highway,5),value(at,(5,1))) init(object(highway,7),value(at,(7,1))) init(object(highway,8),value(at,(8,1))) init(object(highway,9),value(at,(9,1))) init(object(highway,10),value(at,(10,1))) init(object(highway,11),value(at,(11,1))) init(object(highway,12),value(at,(1,2))) init(object(highway,13),value(at,(2,2))) init(object(highway,14),value(at,(3,2))) init(object(highway,15),value(at,(4,2))) init(object(highway,16),value(at,(5,2))) init(object(highway,17),value(at,(6,2))) init(object(highway,18),value(at,(7,2))) init(object(highway,19),value(at,(8,2))) init(object(highway,20),value(at,(9,2))) init(object(highway,21),value(at,(10,2))) init(object(highway,22),value(at,(11,2))) init(object(highway,23),value(at,(1,3))) init(object(highway,28),value(at,(6,3))) init(object(highway,33),value(at,(11,3))) init(object(highway,34),value(at,(1,4))) init(object(highway,39),value(at,(6,4))) init(object(highway,44),value(at,(11,4))) init(object(highway,45),value(at,(1,5))) init(object(highway,46),value(at,(2,5))) init(object(highway,47),value(at,(3,5))) init(object(highway,48),value(at,(4,5))) init(object(highway,49),value(at,(5,5))) init(object(highway,50),value(at,(6,5))) init(object(highway,51),value(at,(7,5))) init(object(highway,52),value(at,(8,5))) init(object(highway,53),value(at,(9,5))) init(object(highway,54),value(at,(10,5))) init(object(highway,55),value(at,(11,5))) init(object(highway,57),value(at,(2,6))) init(object(highway,58),value(at,(3,6))) init(object(highway,59),value(at,(4,6))) init(object(highway,60),value(at,(5,6))) init(object(highway,61),value(at,(6,6))) init(object(highway,62),value(at,(7,6))) init(object(highway,63),value(at,(8,6))) init(object(highway,64),value(at,(9,6))) init(object(highway,65),value(at,(10,6))) init(object(highway,66),value(at,(11,6))) init(object(node,1),value(at,(1,1))) init(object(node,2),value(at,(2,1))) init(object(node,3),value(at,(3,1))) init(object(node,4),value(at,(4,1))) init(object(node,5),value(at,(5,1))) init(object(node,6),value(at,(6,1))) init(object(node,7),value(at,(7,1))) init(object(node,8),value(at,(8,1))) init(object(node,9),value(at,(9,1))) init(object(node,10),value(at,(10,1))) init(object(node,11),value(at,(11,1))) init(object(node,12),value(at,(1,2))) init(object(node,13),value(at,(2,2))) init(object(node,14),value(at,(3,2))) init(object(node,15),value(at,(4,2))) init(object(node,16),value(at,(5,2))) init(object(node,17),value(at,(6,2))) init(object(node,18),value(at,(7,2))) init(object(node,19),value(at,(8,2))) init(object(node,20),value(at,(9,2))) init(object(node,21),value(at,(10,2))) init(object(node,22),value(at,(11,2))) init(object(node,23),value(at,(1,3))) init(object(node,24),value(at,(2,3))) init(object(node,25),value(at,(3,3))) init(object(node,26),value(at,(4,3))) init(object(node,27),value(at,(5,3))) init(object(node,28),value(at,(6,3))) init(object(node,29),value(at,(7,3))) init(object(node,30),value(at,(8,3))) init(object(node,31),value(at,(9,3))) init(object(node,32),value(at,(10,3))) init(object(node,33),value(at,(11,3))) init(object(node,34),value(at,(1,4))) init(object(node,35),value(at,(2,4))) init(object(node,36),value(at,(3,4))) init(object(node,37),value(at,(4,4))) init(object(node,38),value(at,(5,4))) init(object(node,39),value(at,(6,4))) init(object(node,40),value(at,(7,4))) init(object(node,41),value(at,(8,4))) init(object(node,42),value(at,(9,4))) init(object(node,43),value(at,(10,4))) init(object(node,44),value(at,(11,4))) init(object(node,45),value(at,(1,5))) init(object(node,46),value(at,(2,5))) init(object(node,47),value(at,(3,5))) init(object(node,48),value(at,(4,5))) init(object(node,49),value(at,(5,5))) init(object(node,50),value(at,(6,5))) init(object(node,51),value(at,(7,5))) init(object(node,52),value(at,(8,5))) init(object(node,53),value(at,(9,5))) init(object(node,54),value(at,(10,5))) init(object(node,55),value(at,(11,5))) init(object(node,56),value(at,(1,6))) init(object(node,57),value(at,(2,6))) init(object(node,58),value(at,(3,6))) init(object(node,59),value(at,(4,6))) init(object(node,60),value(at,(5,6))) init(object(node,61),value(at,(6,6))) init(object(node,62),value(at,(7,6))) init(object(node,63),value(at,(8,6))) init(object(node,64),value(at,(9,6))) init(object(node,65),value(at,(10,6))) init(object(node,66),value(at,(11,6))) init(object(order,1),value(line,(5,1))) init(object(order,1),value(line,(6,1))) init(object(order,1),value(line,(9,2))) init(object(order,1),value(line,(10,1))) init(object(order,2),value(line,(5,1))) init(object(order,2),value(line,(6,1))) init(object(order,2),value(line,(7,2))) init(object(order,2),value(line,(10,1))) init(object(pickingStation,1),value(at,(6,1))) init(object(product,1),value(on,(6,1))) init(object(product,1),value(on,(8,1))) init(object(product,1),value(on,(10,1))) init(object(product,1),value(on,(12,1))) init(object(product,2),value(on,(1,1))) init(object(product,3),value(on,(7,3))) init(object(product,3),value(on,(13,3))) init(object(product,4),value(on,(2,5))) init(object(product,5),value(on,(1,2))) init(object(product,6),value(on,(1,2))) init(object(product,7),value(on,(1,2))) init(object(product,8),value(on,(11,5))) init(object(product,8),value(on,(14,6))) init(object(product,9),value(on,(1,2))) init(object(product,10),value(on,(1,2))) init(object(product,11),value(on,(1,2))) init(object(product,12),value(on,(1,2))) init(object(product,13),value(on,(1,2))) init(object(product,14),value(on,(1,1))) init(object(product,15),value(on,(1,2))) init(object(product,16),value(on,(1,2))) init(object(product,17),value(on,(3,3))) init(object(product,17),value(on,(4,1))) init(object(product,17),value(on,(5,1))) init(object(product,17),value(on,(16,1))) init(object(product,18),value(on,(1,5))) init(object(product,19),value(on,(1,2))) init(object(product,20),value(on,(16,3))) init(object(product,21),value(on,(1,2))) init(object(product,22),value(on,(9,2))) init(object(product,23),value(on,(9,2))) init(object(product,24),value(on,(9,1))) init(object(product,25),value(on,(9,3))) init(object(product,26),value(on,(1,1))) init(object(product,27),value(on,(1,2))) init(object(product,28),value(on,(13,1))) init(object(product,29),value(on,(2,7))) init(object(product,30),value(on,(15,7))) init(object(product,31),value(on,(2,3))) init(object(product,32),value(on,(2,1))) init(object(robot,1),value(at,(1,6))) init(object(shelf,1),value(at,(2,3))) init(object(shelf,2),value(at,(5,3))) init(object(shelf,3),value(at,(8,3))) init(object(shelf,4),value(at,(9,3))) init(object(shelf,5),value(at,(10,4))) init(object(shelf,6),value(at,(7,3))) init(object(shelf,7),value(at,(7,4))) init(object(shelf,8),value(at,(5,4))) init(object(shelf,9),value(at,(9,4))) init(object(shelf,10),value(at,(8,4))) init(object(shelf,11),value(at,(3,4))) init(object(shelf,12),value(at,(10,3))) init(object(shelf,13),value(at,(4,3))) init(object(shelf,14),value(at,(4,4))) init(object(shelf,15),value(at,(3,3))) init(object(shelf,16),value(at,(2,4))) occurs(object(robot,1),action(move,(0,-1)),1) occurs(object(robot,1),action(move,(0,-1)),2) occurs(object(robot,1),action(move,(1,0)),3) occurs(object(robot,1),action(move,(0,-1)),4) occurs(object(robot,1),action(pickup,()),5) occurs(object(robot,1),action(move,(0,-1)),6) occurs(object(robot,1),action(move,(1,0)),7) occurs(object(robot,1),action(move,(1,0)),8) occurs(object(robot,1),action(move,(1,0)),9) occurs(object(robot,1),action(move,(1,0)),10) occurs(object(robot,1),action(move,(0,-1)),11) occurs(object(robot,1),action(deliver,(2,7,2)),12) occurs(object(robot,1),action(deliver,(1,6,1)),13) occurs(object(robot,1),action(deliver,(2,6,1)),14) occurs(object(robot,1),action(deliver,(1,9,2)),15) occurs(object(robot,1),action(deliver,(2,10,1)),16) occurs(object(robot,1),action(deliver,(2,5,1)),17) occurs(object(robot,1),action(deliver,(1,5,1)),18) occurs(object(robot,1),action(deliver,(1,10,1)),19) occurs(object(robot,1),action(move,(-1,0)),20) occurs(object(robot,1),action(putdown,()),21)
SATISFIABLE

Models       : 1+
Calls        : 22
Time         : 1.497s (Solving: 0.61s 1st Model: 0.02s Unsat: 0.60s)
CPU Time     : 1.460s

Choices      : 4245    
Conflicts    : 2852     (Analyzed: 2842)
Restarts     : 21       (Average: 135.33 Last: 50)
Model-Level  : 21.0    
Problems     : 22       (Average Length: 2.00 Splits: 0)
Lemmas       : 2842     (Deleted: 0)
  Binary     : 89       (Ratio:   3.13%)
  Ternary    : 182      (Ratio:   6.40%)
  Conflict   : 2842     (Average Length:    9.1 Ratio: 100.00%) 
  Loop       : 0        (Average Length:    0.0 Ratio:   0.00%) 
  Other      : 0        (Average Length:    0.0 Ratio:   0.00%) 
Backjumps    : 2842     (Average:  1.49 Max: 208 Sum:   4242)
  Executed   : 2807     (Average:  1.48 Max: 208 Sum:   4200 Ratio:  99.01%)
  Bounded    : 35       (Average:  1.20 Max:   2 Sum:     42 Ratio:   0.99%)

Rules        : 115625   (Original: 99386)
  Choice     : 42      
Atoms        : 36995    (Original: 36934 Auxiliary: 61)
Bodies       : 91134    (Original: 74958)
  Count      : 1351     (Original: 1732)
Equivalences : 58933    (Atom=Atom: 11190 Body=Body: 749 Other: 46994)
Tight        : Yes
Variables    : 43965    (Eliminated:    0 Frozen: 14378)
Constraints  : 172232   (Binary:  60.8% Ternary:  37.3% Other:   2.0%)

